p cnf 7 27
-7 -5 5 0
2 4 5 -1 0
-3 4 5 0
-7 -6 4 0
1 -6 -3 0
-7 -2 0
1 -5 -3 0
-4 -1 0
1 5 4 -7 0
-5 7 0
4 6 0
6 0
-3 5 0
-6 6 7 0
-6 1 2 -5 0
1 0
-7 -3 6 0
1 4 0
-6 0
-5 0
1 3 -1 -5 0
-7 1 6 7 0
4 2 -4 -3 0
-6 6 0
1 4 0
-7 2 3 -5 0
-7 4 0
